(set-info :smt-lib-version 2.6)
(set-logic QF_S)
(set-info :source |
Generated by: Murphy Berzish, Mitja Kulczynski, Federico Mora, Florin Manea, Joel Day, Dirk Nowotka, Vijay Ganesh, Zhengyang Lu
Generated on: 2020-10-01
Description: Translated from a collection of real-world regex queries, AutomataArk, collected by Loris D’Antoni and Fang Wang: https://github.com/lorisdanto/automatark
Application: Evaluate solvers on real-world regex queries
Target solver: Z3str3RE, CVC4, OSTRICH, Z3seq, Z3str3, Z3-Trau
Publications: Berzish, M., Kulczynski, M., Mora, F., Manea, F., Day, J. D., Nowotka, D., & Ganesh, V. (2021, July). An SMT solver for regular expressions and linear arithmetic over string length. In CAV 2021.
|)
(set-info :license "https://creativecommons.org/licenses/by/4.0/")
(set-info :category "industrial")
(set-info :status sat)

(declare-const X String)
(assert (not (str.in_re X (re.++ (str.to_re "\u{a}") (re.opt (re.+ (re.comp (re.union (str.to_re " ") (str.to_re "\u{9}") (str.to_re "\u{a}") (str.to_re "\u{c}") (str.to_re "\u{d}"))))) (re.union (str.to_re "@") (str.to_re "mailto:") (re.++ (re.union (str.to_re "news") (re.++ (re.union (str.to_re "ht") (str.to_re "f")) (str.to_re "tp") (re.opt (str.to_re "s")))) (str.to_re "://"))) (re.+ (re.comp (re.union (str.to_re " ") (str.to_re "\u{9}") (str.to_re "\u{a}") (str.to_re "\u{c}") (str.to_re "\u{d}"))))))))
(assert (not (str.in_re X (re.++ (str.to_re "\u{22}reaction.txt\u{22}") (re.* re.allchar) (str.to_re "Cookie:") (re.* (re.union (str.to_re "\u{a}") (str.to_re "\u{d}"))) (str.to_re "richfind.comSimpsonFrom:\u{a}")))))
(assert (not (str.in_re X (re.++ (str.to_re "Authorization:") (re.+ (re.range "0" "9")) (str.to_re "lnzzlnbk/pkrm.fin\u{a}")))))
(check-sat)

(exit)
